c read Graph
c width = 211
c time = 128 ms
c width = 20
c time = 265 ms
c width = 19
c time = 347 ms
c width = 18
c time = 373 ms
c width = 17
c time = 1781 ms
c width = 16
c time = 4036 ms
c width = 16
c time = 4734 ms
s td 195 17 224
b 1 1 2 17
b 2 2 3 17 18
b 3 14 15 31 32
b 4 3 17 18 33
b 5 14 31 32 48
b 6 177 193 194 210
b 7 192 207 208 223
b 8 177 194 210 211
b 9 192 207 222 223
b 10 3 4 5 20
b 11 3 5 19 20 34 49
b 12 5 19 20 34 36 49 51
b 13 5 20 34 36 49 51 66
b 14 5 20 36 49 51 66 81
b 15 5 20 22 36 37 51 66 81
b 16 5 22 36 37 51 53 66 68 81
b 17 5 22 37 51 53 66 68 81 83
b 18 5 22 37 53 66 68 81 83 98
b 19 5 22 37 39 53 54 68 81 83 98
b 20 5 22 39 53 54 68 70 81 83 85 98
b 21 53 68 69 70 85
b 22 5 22 39 54 68 70 81 83 85 98 100
b 23 68 83 84 85 100
b 24 5 22 39 54 70 81 83 85 98 100 115
b 25 83 98 99 100 115
b 26 5 22 39 54 56 70 71 81 85 98 100 115
b 27 39 54 55 56 71
b 28 5 22 39 56 70 71 81 85 88 98 100 103 115 117 118
b 29 5 22 39 56 71 73 81 88 98 100 103 115 117 118
b 30 5 9 22 26 39 43 56 58 73 81 88 98 100 103 115 117 118
b 31 5 9 22 26 39 41 43 56 58 73
b 32 41 56 57 58 73
b 33 5 9 22 24 26 39 41 56
b 34 5 7 9 22 24 39
b 35 7 22 23 24 39
b 36 5 6 7 22
b 37 7 8 9 24
b 38 9 24 25 26 41
b 39 24 39 40 41 56
b 40 26 41 42 43 58
b 41 9 26 43 58 73 81 88 98 100 103 115 117 118 132
b 42 100 115 116 117 132
b 43 9 26 43 58 73 81 88 98 103 113 115 117 118 132
b 44 9 26 43 58 73 88 98 103 113 115 117 118 130 132
b 45 9 26 43 58 73 88 103 113 115 117 118 130 132 145
b 46 9 26 43 58 73 88 103 115 117 118 130 132 145 147
b 47 115 130 131 132 147
b 48 9 26 43 58 73 88 103 117 118 130 132 133 145 147
b 49 9 26 43 58 73 88 103 118 130 132 133 145 147 148
b 50 9 26 43 58 73 88 103 118 130 133 145 147 148 165 182 199 214
b 51 9 26 43 58 73 88 103 118 133 135 147 148 150 165 182 199 214
b 52 9 26 43 58 73 88 103 118 135 148 150 152 165 167 182 199 214
b 53 135 148 150 151 152 165 167 182 199 214
b 54 9 26 43 58 73 88 103 118 135 152 165 167 182 199 214
b 55 150 165 166 167 182
b 56 9 26 43 58 73 88 103 105 118 122 135 137 152 167 182 199 214
b 57 88 103 105 118 120 122 135 137 152
b 58 103 118 119 120 135
b 59 105 120 121 122 137
b 60 120 135 136 137 152
b 61 88 103 104 105 120
b 62 9 26 43 58 73 88 105 122 137 152 167 169 182 183 184 199 214
b 63 9 26 43 58 73 88 105 122 137 152 169 184 186 199 203 214 218
b 64 169 184 186 199 201 203 214 218
b 65 169 184 185 186 201
b 66 186 201 202 203 218
b 67 184 199 201 214 216 218
b 68 199 214 215 216
b 69 201 216 217 218
b 70 184 199 200 201 216
b 71 152 167 168 169 184
b 72 133 148 149 150 165
b 73 118 133 134 135 150
b 74 130 145 147 148 165 182 197 199 214
b 75 130 145 147 148 165 180 182 197 214
b 76 130 145 147 148 163 165 180 197 214
b 77 130 145 147 162 163 180 197 214
b 78 130 145 146 147 162
b 79 145 162 163 180 197 212 214
b 80 197 212 213 214
b 81 145 162 163 180 195 197 212
b 82 180 195 196 197 212
b 83 145 162 163 178 180 195 212
b 84 145 162 177 178 195 212
b 85 177 178 195 211 212
b 86 177 178 194 195 211
b 87 145 161 162 177
b 88 163 178 179 180 195
b 89 148 163 164 165 180
b 90 165 180 181 182 197
b 91 182 197 198 199 214
b 92 113 129 130 145
b 93 98 113 114 115 130
b 94 81 97 98 113
b 95 56 71 72 73 88
b 96 70 71 85 88 100 102 103 117 118
b 97 85 100 101 102 117
b 98 70 71 85 87 88 102 103
b 99 70 85 86 87 102
b 100 22 37 38 39 54
b 101 66 81 82 83 98
b 102 51 66 67 68 83
b 103 36 51 52 53 68
b 104 5 20 21 22 37
b 105 49 65 66 81
b 106 34 49 50 51 66
b 107 19 34 35 36 51
b 108 3 19 33 34 49
b 109 3 18 19 33 34
b 110 77 92 93 94 109
b 111 73 88 89 90 105
b 112 90 105 106 107 122
b 113 124 139 140 141 156
b 114 141 156 157 158 173
b 115 154 169 170 171 186
b 116 171 186 187 188 203
b 117 43 58 59 60 75
b 118 58 73 74 75 90
b 119 60 75 76 77 92
b 120 75 90 91 92 107
b 121 9 26 43 60 77 92 94 109 126 143 160
b 122 9 26 43 60 75 77 92 109 126 143 160
b 123 9 26 43 58 60 75 92 109 126 143 160
b 124 9 26 43 58 73 88 90 105 122 137 152 169 186 203 218
b 125 9 26 43 58 73 75 90 105 122 137 152 169 186 203 218
b 126 9 26 43 58 75 90 105 122 137 152 154 169 186 203 218
b 127 9 26 43 58 75 90 105 107 122 137 154 169 186 203 218
b 128 9 26 43 58 75 90 92 107 122 137 154 169 186 203 218
b 129 9 26 43 58 75 92 107 122 137 139 154 169 186 203 218
b 130 9 26 43 58 75 92 107 122 139 154 169 171 186 203 218
b 131 9 26 43 58 75 92 107 122 124 139 154 171 186 203 218
b 132 9 26 43 58 75 92 107 109 124 139 154 171 186 203 218
b 133 9 26 43 58 75 92 109 124 139 154 156 171 186 203 218
b 134 9 26 43 58 75 92 109 124 139 156 171 186 188 203 218
b 135 9 26 43 58 75 92 109 124 139 156 171 173 188 203 218
b 136 9 26 43 58 75 92 109 124 139 141 156 173 188 203 218
b 137 9 26 43 58 75 92 109 124 126 141 156 173 188 203 218
b 138 9 26 43 58 75 92 109 126 141 143 156 160 173 188 203 218
b 139 126 141 143 156 158 160 173 188 203 218
b 140 141 143 156 158 160 173 188 203 218
b 141 9 26 43 60 77 79 94 96 109 126 143 160
b 142 79 94 96 109 111 126 143 160
b 143 79 94 95 96 111
b 144 96 111 126 128 143 160
b 145 96 111 112 128
b 146 128 143 144 160
b 147 111 126 127 128 143
b 148 94 109 110 111 126
b 149 9 13 26 28 43 60 77 79 94 96
b 150 13 28 43 60 62 77 79 94 96
b 151 62 77 78 79 94
b 152 13 28 43 45 60 62 77 79 96
b 153 45 60 61 62 77
b 154 28 43 44 45 60
b 155 13 28 45 62 64 79 96
b 156 64 79 80 96
b 157 13 28 45 47 62 64 79
b 158 13 28 30 45 47 62 64
b 159 30 45 46 47 62
b 160 13 30 47 48 64
b 161 13 14 30 47 48
b 162 14 30 31 47 48
b 163 13 28 29 30 45
b 164 47 62 63 64 79
b 165 9 11 13 26 28 43
b 166 11 12 13 28
b 167 9 10 11 26
b 168 11 26 27 28 43
b 169 126 141 142 143 158
b 170 143 158 160 173 188 203 218 220
b 171 203 218 219 220
b 172 143 158 160 173 188 203 205 220
b 173 188 203 204 205 220
b 174 143 158 160 173 175 188 205 220
b 175 158 160 173 175 188 190 205 220
b 176 158 173 174 175 190
b 177 160 175 190 205 220 222
b 178 160 175 190 205 206 222
b 179 160 175 190 192 206 222
b 180 175 190 191 192 206 222
b 181 191 192 206 207 222
b 182 160 175 176 192
b 183 205 220 221 222
b 184 173 188 189 190 205
b 185 143 158 159 160 175
b 186 156 171 172 173 188
b 187 92 107 108 109 124
b 188 109 124 125 126 141
b 189 107 122 123 124 139
b 190 139 154 155 156 171
b 191 137 152 153 154 169
b 192 122 137 138 139 154
b 193 208 223 224
b 194 193 209 210
b 195 15 16 32
1 2
2 4
3 195
3 5
4 109
5 162
6 194
6 8
7 193
7 9
8 86
9 181
10 11
11 108
11 12
12 107
12 13
13 106
13 14
14 105
14 15
15 104
15 16
16 103
16 17
17 102
17 18
18 101
18 19
19 100
19 20
20 22
20 21
22 24
22 23
24 26
24 25
26 28
26 27
28 96
28 29
29 95
29 30
30 41
30 31
31 32
31 33
31 40
33 38
33 39
33 34
34 36
34 37
34 35
41 43
41 42
43 94
43 44
44 93
44 45
45 92
45 46
46 48
46 47
48 49
49 50
50 74
50 51
51 72
51 73
51 52
52 56
52 55
52 54
52 53
56 62
56 57
57 59
57 60
57 61
57 58
62 71
62 63
63 124
63 64
64 67
64 65
64 66
67 68
67 69
67 70
74 91
74 75
75 90
75 76
76 77
76 89
77 79
77 78
79 80
79 81
81 82
81 83
83 88
83 84
84 87
84 85
85 86
96 97
96 98
98 99
108 109
110 121
111 124
112 127
113 136
114 140
115 130
116 134
117 123
118 125
119 122
120 128
121 141
121 122
122 123
123 138
124 125
125 126
126 191
126 127
127 128
128 129
129 192
129 130
130 131
131 189
131 132
132 187
132 133
133 190
133 134
134 135
135 186
135 136
136 137
137 188
137 138
138 139
139 169
139 170
139 140
141 149
141 142
142 144
142 148
142 143
144 145
144 146
144 147
149 150
149 165
150 151
150 152
152 154
152 153
152 155
155 156
155 157
157 164
157 158
158 160
158 163
158 159
160 161
161 162
165 167
165 168
165 166
170 171
170 172
172 173
172 174
174 185
174 175
175 176
175 177
175 184
177 183
177 178
178 179
179 182
179 180
180 181
